27      4       
10      10      10      10      
0       0       0       0       0       10      2       3       4       5       7       8       9       11      12      16      
6       0       3       3       0       3       6       10      14      
5       0       8       0       2       8       13      19      20      21      22      23      24      25      
10      0       0       7       10      7       13      17      20      21      22      23      26      
5       3       0       0       7       6       14      15      17      19      22      24      
6       0       0       10      10      6       17      20      21      22      24      25      
4       0       7       7       0       6       17      18      19      20      21      26      
8       0       0       10      7       5       13      17      20      21      23      
10      10      10      0       0       5       13      17      19      20      21      
8       0       2       3       8       5       17      19      21      22      23      
3       0       10      0       8       3       17      19      22      
9       10      0       0       10      2       19      20      
8       10      0       10      0       1       18      
3       10      0       10      0       1       18      
9       0       0       10      7       1       23      
1       0       0       6       7       1       17      
9       0       0       10      10      1       27      
8       0       8       4       0       1       27      
7       0       8       8       0       1       27      
4       0       0       10      10      1       27      
7       7       0       10      0       1       27      
7       0       2       2       10      1       27      
2       0       0       6       10      1       27      
2       0       10      0       7       1       27      
9       10      0       10      0       1       27      
1       7       0       0       3       1       27      
0       0       0       0       0       0       
